48	78	21	17	20	3	4	3	4	0	0	2	0	2	3	0	3	2	3	0	3	0	3	0	3	0	4	4	0	4	0	0	2	4	2
62	44	14	15	19	2	0	0	0	3	2	0	4	3	0	4	4	0	0	2	0	2	0	3	0	3	2	3	2	3	4	2	0	0	0
53	47	19	8	18	0	0	0	3	4	3	3	4	2	0	0	2	0	0	2	0	0	2	0	2	4	3	0	3	2	0	0	2	4	0
93	77	62	118	63	56	54	51	61	42	49	42	37	41	45	140	146	142	143	125	140	123	136	133	139	103	105	90	85	92	83	91	90	81	81
34	11	48	60	105	76	72	69	62	67	74	66	51	77	66	47	57	58	57	51	50	30	49	37	57	66	91	73	90	80	77	80	89	67	92
10	10	13	11	9	10	8	13	8	10	11	10	12	10	15	14	14	13	14	10	10	9	11	8	15	14	12	14	10	14
12	13	16	14	12	12	10	16	11	12	14	13	15	12	17	16	17	16	17	12	12	12	14	11	18	17	15	16	13	16

